[runlim] version:		2.0.0rc12
[runlim] host:			ap-Precision-7550
[runlim] time limit:		311040000 seconds
[runlim] real time limit:	600 seconds
[runlim] space limit:		14000 MB
[runlim] argv[0]:		python3
[runlim] argv[1]:		cp_no.py
[runlim] argv[2]:		scen03
[runlim] start:			Wed Mar 25 05:34:14 2026
[runlim] child:			70477
--- Building model for 400 variables ---
--- Solving with CP Optimizer (Integer Mode) ---
 ! --------------------------------------------------- CP Optimizer 22.1.1.0 --
 ! Minimization problem - 400 variables, 2760 constraints
 ! LogVerbosity         = Terse
 ! Initial process time : 0.02s (0.02s extraction + 0.00s propagation)
 !  . Log search space  : 2117.3 (before), 2117.3 (after)
 !  . Memory usage      : 1.5 MB (before), 1.5 MB (after)
 ! Using parallel search with 12 workers.
 ! ----------------------------------------------------------------------------
 !          Best Branches  Non-fixed    W       Branch decision
                        0        400                 -
 + New bound is 0
                        0        400                 -
 + New bound is 1
                        2        400    1   F   142 != node_577
 + New bound is 2
 *            34      214  0.14s        1      (gap is 94.12%)
 *            32      250  0.14s        3      (gap is 93.75%)
 *            30      711  0.14s        3      (gap is 93.33%)
 *            26     1087  0.22s        1      (gap is 92.31%)
 *            24     2109  0.30s        5      (gap is 91.67%)
 *            22     3718  0.34s        3      (gap is 90.91%)
 *            20     4221  0.37s        3      (gap is 90.00%)
 *            18     8192  0.52s        9      (gap is 88.89%)
 *            16    11571  0.68s        1      (gap is 87.50%)
 *            14    20395  2.05s        2      (gap is 85.71%)
              14    88502        348    7   F   764 != node_401
 + New bound is 3 (gap is 78.57%)
[runlim] sample:		76.31 time, 10.01 real, 177 MB, 8.64 load
[runlim] sample:		160.56 time, 20.01 real, 183 MB, 7.61 load
[runlim] sample:		237.37 time, 30.01 real, 186 MB, 6.90 load
[runlim] sample:		312.68 time, 40.02 real, 187 MB, 7.53 load
[runlim] sample:		391.98 time, 50.01 real, 188 MB, 7.67 load
[runlim] sample:		477.64 time, 60.02 real, 189 MB, 8.26 load
[runlim] sample:		561.93 time, 70.01 real, 190 MB, 8.27 load
[runlim] sample:		639.60 time, 80.01 real, 191 MB, 8.86 load
[runlim] sample:		718.56 time, 90.02 real, 191 MB, 7.89 load
[runlim] sample:		798.60 time, 100.01 real, 191 MB, 8.30 load
[runlim] sample:		876.61 time, 110.01 real, 192 MB, 8.07 load
[runlim] sample:		955.82 time, 120.01 real, 192 MB, 7.20 load
[runlim] sample:		1043.26 time, 130.02 real, 194 MB, 7.14 load
[runlim] sample:		1122.20 time, 140.01 real, 194 MB, 7.14 load
[runlim] sample:		1199.49 time, 150.02 real, 195 MB, 7.67 load
[runlim] sample:		1277.58 time, 160.01 real, 195 MB, 7.53 load
[runlim] sample:		1363.20 time, 170.02 real, 195 MB, 7.40 load
[runlim] sample:		1446.19 time, 180.01 real, 197 MB, 8.18 load
[runlim] sample:		1524.27 time, 190.01 real, 198 MB, 8.37 load
[runlim] sample:		1601.06 time, 200.01 real, 199 MB, 8.85 load
[runlim] sample:		1681.55 time, 210.01 real, 199 MB, 9.19 load
[runlim] sample:		1765.11 time, 220.02 real, 199 MB, 9.54 load
[runlim] sample:		1844.34 time, 230.02 real, 201 MB, 9.70 load
[runlim] sample:		1924.38 time, 240.01 real, 201 MB, 9.33 load
[runlim] sample:		1999.44 time, 250.01 real, 202 MB, 9.66 load
[runlim] sample:		2076.95 time, 260.02 real, 202 MB, 9.21 load
[runlim] sample:		2154.49 time, 270.02 real, 202 MB, 8.99 load
[runlim] sample:		2237.57 time, 280.01 real, 203 MB, 8.65 load
[runlim] sample:		2315.60 time, 290.01 real, 203 MB, 8.36 load
[runlim] sample:		2402.91 time, 300.02 real, 204 MB, 8.11 load
[runlim] sample:		2481.87 time, 310.01 real, 204 MB, 7.99 load
[runlim] sample:		2563.12 time, 320.01 real, 204 MB, 8.04 load
[runlim] sample:		2643.86 time, 330.01 real, 205 MB, 7.04 load
[runlim] sample:		2715.50 time, 340.01 real, 205 MB, 6.99 load
[runlim] sample:		2795.87 time, 350.01 real, 205 MB, 7.61 load
[runlim] sample:		2873.29 time, 360.01 real, 206 MB, 6.99 load
[runlim] sample:		2948.92 time, 370.01 real, 206 MB, 7.17 load
[runlim] sample:		3030.87 time, 380.01 real, 208 MB, 7.10 load
[runlim] sample:		3113.20 time, 390.02 real, 209 MB, 6.40 load
[runlim] sample:		3192.34 time, 400.01 real, 209 MB, 5.65 load
[runlim] sample:		3274.40 time, 410.02 real, 209 MB, 6.31 load
[runlim] sample:		3356.30 time, 420.01 real, 209 MB, 6.79 load
[runlim] sample:		3429.96 time, 430.01 real, 209 MB, 6.46 load
[runlim] sample:		3505.18 time, 440.01 real, 209 MB, 6.58 load
[runlim] sample:		3580.66 time, 450.01 real, 210 MB, 5.87 load
[runlim] sample:		3656.68 time, 460.01 real, 210 MB, 6.89 load
[runlim] sample:		3732.46 time, 470.01 real, 210 MB, 7.28 load
[runlim] sample:		3812.26 time, 480.01 real, 210 MB, 6.31 load
[runlim] sample:		3893.67 time, 490.01 real, 210 MB, 6.05 load
[runlim] sample:		3975.85 time, 500.01 real, 211 MB, 5.71 load
[runlim] sample:		4056.43 time, 510.01 real, 211 MB, 6.75 load
[runlim] sample:		4139.81 time, 520.02 real, 211 MB, 7.19 load
[runlim] sample:		4226.98 time, 530.02 real, 211 MB, 7.45 load
[runlim] sample:		4307.95 time, 540.01 real, 212 MB, 6.69 load
[runlim] sample:		4386.54 time, 550.01 real, 212 MB, 7.26 load
[runlim] sample:		4464.58 time, 560.01 real, 212 MB, 7.51 load
[runlim] sample:		4543.23 time, 570.01 real, 212 MB, 7.23 load
[runlim] sample:		4619.44 time, 580.02 real, 213 MB, 7.65 load
[runlim] sample:		4695.44 time, 590.01 real, 213 MB, 6.95 load
[runlim] sample:		4771.67 time, 600.02 real, 213 MB, 6.03 load
[runlim] end:			Wed Mar 25 05:44:15 2026
[runlim] status:		out of time
[runlim] result:		2
[runlim] children:		2
[runlim] processes:		3
[runlim] real:			601.07 seconds
[runlim] time:			4771.67 seconds
[runlim] space:			213 MB
[runlim] load:			9.88 maximum
[runlim] samples:		6000
